\ Model matlab
\ LP format - for model browsing. Use MPS format to capture full model detail.
Minimize
  3 C0 + 3 C1 + 3 C2 + 4 C4 + 4 C5 + 4 C6 + 10 C8 + 10 C9 + 10 C10
   - 52.60879781214719 C16 - 55.21842316338267 C17 - 57.81372325201154 C18
   + 0.008 C19 + 0.064 C20 + 0.064 C21 + 0.064 C22 + 0.064 C23
   - 52.60879781214719 C28 - 55.21842316338267 C29 - 57.81372325201154 C30
   + 0.008 C31 + 0.072 C32 + 0.072 C33 + 0.072 C34 + 0.072 C35
   + 1.450666666666667 C36 - 73.5124 C37 + 89.62226031934132 C38
   - 17.19788194558553 C39 + 1.450666666666667 C40 - 73.5124 C41
   + 89.62226031934132 C42 - 17.19788194558553 C43 + 1.450666666666667 C44
   - 73.5124 C45 + 89.62226031934132 C46 - 17.19788194558553 C47
   + 1.450666666666667 C48 - 73.5124 C49 + 89.62226031934132 C50
   - 17.19788194558553 C51 - 52.61679781214719 C52 - 55.22642316338268 C53
   - 57.82172325201155 C54 + 2.7904 C56 + 17.5632 C57
   - 7.347425448559642 C58 + 16.23248000000005 C59 + 2.7904 C60
   + 17.5632 C61 - 7.347425448559642 C62 + 16.23248000000005 C63
   + 2.7904 C64 + 17.5632 C65 - 7.347425448559642 C66
   + 16.23248000000005 C67 + 2.7904 C68 + 17.5632 C69
   - 7.347425448559642 C70 + 16.23248000000005 C71
Subject To
 R0: 2 C12 + C16 <= 2
 R1: - 3 C12 - C16 <= -2.22045e-16
 R2: <= 10
 R3: <= 38
 R4: - 2 C12 + C20 <= 0
 R5: - 3 C12 - C20 <= 0
 R6: 3 C12 - C16 + C20 <= 3
 R7: 2 C12 + C16 - C20 <= 2
 R8: 2 C13 + C17 <= 2
 R9: - 3 C13 - C17 <= -2.22045e-16
 R10: 0.16 C16 + 0.02 C20 <= 10
 R11: - 0.16 C16 - 0.02 C20 <= 38
 R12: - 2 C13 + C21 <= 0
 R13: - 3 C13 - C21 <= 0
 R14: 3 C13 - C17 + C21 <= 3
 R15: 2 C13 + C17 - C21 <= 2
 R16: 2 C14 + C18 <= 2
 R17: - 3 C14 - C18 <= -2.22045e-16
 R18: 0.16 C16 + 0.16 C17 + 0.02 C20 + 0.02 C21 <= 10
 R19: - 0.16 C16 - 0.16 C17 - 0.02 C20 - 0.02 C21 <= 38
 R20: - 2 C14 + C22 <= 0
 R21: - 3 C14 - C22 <= 0
 R22: 3 C14 - C18 + C22 <= 3
 R23: 2 C14 + C18 - C22 <= 2
 R24: 2 C15 + C19 <= 2
 R25: - 3 C15 - C19 <= -2.22045e-16
 R26: 0.16 C16 + 0.16 C17 + 0.16 C18 + 0.02 C20 + 0.02 C21 + 0.02 C22
   <= 10
 R27: - 0.16 C16 - 0.16 C17 - 0.16 C18 - 0.02 C20 - 0.02 C21 - 0.02 C22
   <= 38
 R28: - 2 C15 + C23 <= 0
 R29: - 3 C15 - C23 <= 0
 R30: 3 C15 - C19 + C23 <= 3
 R31: 2 C15 + C19 - C23 <= 2
 R32: 3 C24 + C28 <= 3
 R33: - 4 C24 - C28 <= -2.22045e-16
 R34: <= 10
 R35: <= 54
 R36: - 3 C24 + C32 <= 0
 R37: - 4 C24 - C32 <= 0
 R38: 4 C24 - C28 + C32 <= 4
 R39: 3 C24 + C28 - C32 <= 3
 R40: 3 C25 + C29 <= 3
 R41: - 4 C25 - C29 <= -2.22045e-16
 R42: 0.18 C28 + 0.02 C32 <= 10
 R43: - 0.18 C28 - 0.02 C32 <= 54
 R44: - 3 C25 + C33 <= 0
 R45: - 4 C25 - C33 <= 0
 R46: 4 C25 - C29 + C33 <= 4
 R47: 3 C25 + C29 - C33 <= 3
 R48: 3 C26 + C30 <= 3
 R49: - 4 C26 - C30 <= -2.22045e-16
 R50: 0.18 C28 + 0.18 C29 + 0.02 C32 + 0.02 C33 <= 10
 R51: - 0.18 C28 - 0.18 C29 - 0.02 C32 - 0.02 C33 <= 54
 R52: - 3 C26 + C34 <= 0
 R53: - 4 C26 - C34 <= 0
 R54: 4 C26 - C30 + C34 <= 4
 R55: 3 C26 + C30 - C34 <= 3
 R56: 3 C27 + C31 <= 3
 R57: - 4 C27 - C31 <= -2.22045e-16
 R58: 0.18 C28 + 0.18 C29 + 0.18 C30 + 0.02 C32 + 0.02 C33 + 0.02 C34
   <= 10
 R59: - 0.18 C28 - 0.18 C29 - 0.18 C30 - 0.02 C32 - 0.02 C33 - 0.02 C34
   <= 54
 R60: - 3 C27 + C35 <= 0
 R61: - 4 C27 - C35 <= 0
 R62: 4 C27 - C31 + C35 <= 4
 R63: 3 C27 + C31 - C35 <= 3
 R64: C36 + C37 + C38 + C39 <= 1
 R65: <= 60
 R66: <= 70
 R67: - 5 C36 + C56 <= 0
 R68: - C56 <= 0
 R69: - C52 + C56 <= 0
 R70: 5 C36 + C52 - C56 <= 5
 R71: - C52 <= 0
 R72: 10 C36 + C52 <= 15
 R73: - 6.5 C37 + C57 <= 0
 R74: 5 C37 - C57 <= 0
 R75: - 5 C37 - C52 + C57 <= -5
 R76: 6.5 C37 + C52 - C57 <= 6.5
 R77: 5 C37 - C52 <= 0
 R78: 8.5 C37 + C52 <= 15
 R79: - 11 C38 + C58 <= 0
 R80: 6.5 C38 - C58 <= 0
 R81: - 6.5 C38 - C52 + C58 <= -6.5
 R82: 11 C38 + C52 - C58 <= 11
 R83: 6.5 C38 - C52 <= 0
 R84: 4 C38 + C52 <= 15
 R85: - 15 C39 + C59 <= 0
 R86: 11 C39 - C59 <= 0
 R87: - 11 C39 - C52 + C59 <= -11
 R88: 15 C39 + C52 - C59 <= 15
 R89: 11 C39 - C52 <= 0
 R90: - 15 C39 + C52 <= 0
 R91: C40 + C41 + C42 + C43 <= 1
 R92: 0.3626666666666667 C36 - 18.3781 C37 + 22.40556507983533 C38
   - 4.299470486396383 C39 + 0.6976 C56 + 4.3908 C57
   - 1.836856362139911 C58 + 4.05812 C59 <= 60.08
 R93: - 0.3626666666666667 C36 + 18.3781 C37 - 22.40556507983533 C38
   + 4.299470486396383 C39 - 0.6976 C56 - 4.3908 C57
   + 1.836856362139911 C58 - 4.05812 C59 <= 69.92
 R94: - 5 C40 + C60 <= 0
 R95: - C60 <= 0
 R96: - C53 + C60 <= 0
 R97: 5 C40 + C53 - C60 <= 5
 R98: - C53 <= 0
 R99: 10 C40 + C53 <= 15
 R100: - 6.5 C41 + C61 <= 0
 R101: 5 C41 - C61 <= 0
 R102: - 5 C41 - C53 + C61 <= -5
 R103: 6.5 C41 + C53 - C61 <= 6.5
 R104: 5 C41 - C53 <= 0
 R105: 8.5 C41 + C53 <= 15
 R106: - 11 C42 + C62 <= 0
 R107: 6.5 C42 - C62 <= 0
 R108: - 6.5 C42 - C53 + C62 <= -6.5
 R109: 11 C42 + C53 - C62 <= 11
 R110: 6.5 C42 - C53 <= 0
 R111: 4 C42 + C53 <= 15
 R112: - 15 C43 + C63 <= 0
 R113: 11 C43 - C63 <= 0
 R114: - 11 C43 - C53 + C63 <= -11
 R115: 15 C43 + C53 - C63 <= 15
 R116: 11 C43 - C53 <= 0
 R117: - 15 C43 + C53 <= 0
 R118: C44 + C45 + C46 + C47 <= 1
 R119: 0.3626666666666667 C36 - 18.3781 C37 + 22.40556507983533 C38
   - 4.299470486396383 C39 + 0.3626666666666667 C40 - 18.3781 C41
   + 22.40556507983533 C42 - 4.299470486396383 C43 + 0.6976 C56
   + 4.3908 C57 - 1.836856362139911 C58 + 4.05812 C59 + 0.6976 C60
   + 4.3908 C61 - 1.836856362139911 C62 + 4.05812 C63 <= 60.16
 R120: - 0.3626666666666667 C36 + 18.3781 C37 - 22.40556507983533 C38
   + 4.299470486396383 C39 - 0.3626666666666667 C40 + 18.3781 C41
   - 22.40556507983533 C42 + 4.299470486396383 C43 - 0.6976 C56
   - 4.3908 C57 + 1.836856362139911 C58 - 4.05812 C59 - 0.6976 C60
   - 4.3908 C61 + 1.836856362139911 C62 - 4.05812 C63 <= 69.84
 R121: - 5 C44 + C64 <= 0
 R122: - C64 <= 0
 R123: - C54 + C64 <= 0
 R124: 5 C44 + C54 - C64 <= 5
 R125: - C54 <= 0
 R126: 10 C44 + C54 <= 15
 R127: - 6.5 C45 + C65 <= 0
 R128: 5 C45 - C65 <= 0
 R129: - 5 C45 - C54 + C65 <= -5
 R130: 6.5 C45 + C54 - C65 <= 6.5
 R131: 5 C45 - C54 <= 0
 R132: 8.5 C45 + C54 <= 15
 R133: - 11 C46 + C66 <= 0
 R134: 6.5 C46 - C66 <= 0
 R135: - 6.5 C46 - C54 + C66 <= -6.5
 R136: 11 C46 + C54 - C66 <= 11
 R137: 6.5 C46 - C54 <= 0
 R138: 4 C46 + C54 <= 15
 R139: - 15 C47 + C67 <= 0
 R140: 11 C47 - C67 <= 0
 R141: - 11 C47 - C54 + C67 <= -11
 R142: 15 C47 + C54 - C67 <= 15
 R143: 11 C47 - C54 <= 0
 R144: - 15 C47 + C54 <= 0
 R145: C48 + C49 + C50 + C51 <= 1
 R146: 0.3626666666666667 C36 - 18.3781 C37 + 22.40556507983533 C38
   - 4.299470486396383 C39 + 0.3626666666666667 C40 - 18.3781 C41
   + 22.40556507983533 C42 - 4.299470486396383 C43 + 0.3626666666666667 C44
   - 18.3781 C45 + 22.40556507983533 C46 - 4.299470486396383 C47
   + 0.6976 C56 + 4.3908 C57 - 1.836856362139911 C58 + 4.05812 C59
   + 0.6976 C60 + 4.3908 C61 - 1.836856362139911 C62 + 4.05812 C63
   + 0.6976 C64 + 4.3908 C65 - 1.836856362139911 C66 + 4.05812 C67
   <= 60.24
 R147: - 0.3626666666666667 C36 + 18.3781 C37 - 22.40556507983533 C38
   + 4.299470486396383 C39 - 0.3626666666666667 C40 + 18.3781 C41
   - 22.40556507983533 C42 + 4.299470486396383 C43 - 0.3626666666666667 C44
   + 18.3781 C45 - 22.40556507983533 C46 + 4.299470486396383 C47
   - 0.6976 C56 - 4.3908 C57 + 1.836856362139911 C58 - 4.05812 C59
   - 0.6976 C60 - 4.3908 C61 + 1.836856362139911 C62 - 4.05812 C63
   - 0.6976 C64 - 4.3908 C65 + 1.836856362139911 C66 - 4.05812 C67
   <= 69.76
 R148: - 5 C48 + C68 <= 0
 R149: - C68 <= 0
 R150: - C55 + C68 <= 0
 R151: 5 C48 + C55 - C68 <= 5
 R152: - C55 <= 0
 R153: 10 C48 + C55 <= 15
 R154: - 6.5 C49 + C69 <= 0
 R155: 5 C49 - C69 <= 0
 R156: - 5 C49 - C55 + C69 <= -5
 R157: 6.5 C49 + C55 - C69 <= 6.5
 R158: 5 C49 - C55 <= 0
 R159: 8.5 C49 + C55 <= 15
 R160: - 11 C50 + C70 <= 0
 R161: 6.5 C50 - C70 <= 0
 R162: - 6.5 C50 - C55 + C70 <= -6.5
 R163: 11 C50 + C55 - C70 <= 11
 R164: 6.5 C50 - C55 <= 0
 R165: 4 C50 + C55 <= 15
 R166: - 15 C51 + C71 <= 0
 R167: 11 C51 - C71 <= 0
 R168: - 11 C51 - C55 + C71 <= -11
 R169: 15 C51 + C55 - C71 <= 15
 R170: 11 C51 - C55 <= 0
 R171: - 15 C51 + C55 <= 0
 R172: - C0 - C12 <= 0
 R173: - C1 + C12 - C13 <= 0
 R174: - C2 + C13 - C14 <= 0
 R175: - C3 + C14 - C15 <= 0
 R176: - C4 - C24 <= 0
 R177: - C5 + C24 - C25 <= 0
 R178: - C6 + C25 - C26 <= 0
 R179: - C7 + C26 - C27 <= 0
 R180: - C8 - C36 - C37 - C38 - C39 <= 0
 R181: - C9 + C36 + C37 + C38 + C39 - C40 - C41 - C42 - C43 <= 0
 R182: - C10 + C40 + C41 + C42 + C43 - C44 - C45 - C46 - C47 <= 0
 R183: - C11 + C44 + C45 + C46 + C47 - C48 - C49 - C50 - C51 <= 0
 R184: - C0 + C12 <= 0
 R185: - C1 - C12 + C13 <= 0
 R186: - C2 - C13 + C14 <= 0
 R187: - C3 - C14 + C15 <= 0
 R188: - C4 + C24 <= 0
 R189: - C5 - C24 + C25 <= 0
 R190: - C6 - C25 + C26 <= 0
 R191: - C7 - C26 + C27 <= 0
 R192: - C8 + C36 + C37 + C38 + C39 <= 0
 R193: - C9 - C36 - C37 - C38 - C39 + C40 + C41 + C42 + C43 <= 0
 R194: - C10 - C40 - C41 - C42 - C43 + C44 + C45 + C46 + C47 <= 0
 R195: - C11 - C44 - C45 - C46 - C47 + C48 + C49 + C50 + C51 <= 0
Bounds
Binaries
 C12 C13 C14 C15 C24 C25 C26 C27 C36 C37 C38 C39 C40 C41 C42 C43 C44 C45
 C46 C47 C48 C49 C50 C51
Semi-continuous
 C20 C21 C22 C23 C32 C33 C34 C35 C56 C57 C58 C59 C60 C61 C62 C63 C64 C65
 C66 C67 C68 C69 C70 C71
End
